30 5
17 20 51 24 52 78 34 79 75 73 48 59 15 79 62 82 39 52 51 70 89 56 17 22 54 29 43 84 47 36
11 39 18 85 57 22 44 23 79 89 53 53 22 28 79 17 67 99 66 19 40 57 99 89 46 48 90 82 90 79
50 32 17 96 90 11 41 16 39 35 82 82 39 81 65 50 61 65 100 22 92 35 11 18 53 57 91 10 77 87
67 40 25 22 88 11 69 18 68 59 70 39 13 31 48 45 97 42 55 12 22 55 36 47 65 13 68 60 70 37
61 64 43 62 80 10 30 55 85 39 69 35 26 28 27 34 37 76 38 44 57 74 23 82 90 78 38 27 55 94
